Geographic Exponential Decay
80 161 77 300 76 294 289 258 131 237 266 107 257 87 23 37 45 125 16 91 57 165 184 116 53 129 122 61 171 155 126 271 229 188 291 216 269 282 66 71 183 20 231 112 130 38 209 75 47 115 109 185 275 227 52 69 203 310 25 173 249 27 43 95 305 104 78 9 108 145 180 261 34 195 240 55 263 235 167 68 70
p edge 320 1315
e 0 123 22.0
e 0 56 3.0
e 1 122 97.0
e 1 191 1.0
e 2 276 1.0
e 2 42 3.0
e 3 153 10.0
e 4 293 2.0
e 5 9 81.0
e 5 219 4.0
e 6 182 1.0
e 6 247 3.0
e 7 54 1.0
e 8 288 1.0
e 9 57 80.0
e 9 124 8.0
e 9 27 30.0
e 9 192 11.0
e 9 151 11.0
e 9 92 96.0
e 9 99 75.0
e 9 304 59.0
e 9 30 59.0
e 9 140 91.0
e 9 183 96.0
e 9 314 7.0
e 9 25 30.0
e 9 268 12.0
e 9 38 12.0
e 9 171 74.0
e 10 106 1.0
e 11 88 35.0
e 12 104 46.0
e 13 18 41.0
e 13 287 3.0
e 13 21 15.0
e 13 274 24.0
e 13 112 80.0
e 13 49 6.0
e 13 188 94.0
e 13 277 41.0
e 13 102 40.0
e 14 261 10.0
e 14 183 53.0
e 15 153 3.0
e 15 252 1.0
e 16 58 42.0
e 16 101 34.0
e 16 199 58.0
e 16 198 17.0
e 16 17 22.0
e 16 77 28.0
e 16 161 2.0
e 16 81 60.0
e 16 150 3.0
e 16 93 14.0
e 16 97 18.0
e 16 197 44.0
e 16 223 3.0
e 16 104 62.0
e 16 1 51.0
e 16 0 76.0
e 16 53 94.0
e 19 264 4.0
e 19 222 13.0
e 19 103 12.0
e 19 261 63.0
e 19 90 4.0
e 20 90 56.0
e 20 36 34.0
e 20 163 42.0
e 20 135 78.0
e 20 225 34.0
e 20 108 59.0
e 20 281 68.0
e 20 214 71.0
e 20 191 95.0
e 20 140 8.0
e 20 150 90.0
e 20 151 40.0
e 20 154 58.0
e 20 130 92.0
e 20 226 46.0
e 20 127 100.0
e 20 162 14.0
e 22 158 3.0
e 23 258 11.0
e 23 222 97.0
e 23 70 34.0
e 23 245 52.0
e 23 13 89.0
e 23 33 37.0
e 23 210 2.0
e 23 123 34.0
e 23 236 25.0
e 23 307 81.0
e 23 29 3.0
e 23 250 21.0
e 23 300 59.0
e 23 126 15.0
e 23 231 88.0
e 23 204 89.0
e 23 241 77.0
e 24 308 2.0
e 24 119 1.0
e 25 89 93.0
e 25 261 5.0
e 25 267 65.0
e 25 88 4.0
e 25 214 53.0
e 25 256 89.0
e 25 119 26.0
e 25 234 99.0
e 25 209 86.0
e 25 215 36.0
e 25 56 66.0
e 25 82 72.0
e 25 203 67.0
e 25 174 68.0
e 25 101 37.0
e 25 233 92.0
e 26 122 1.0
e 26 74 21.0
e 26 257 56.0
e 26 40 4.0
e 26 219 8.0
e 27 176 11.0
e 27 258 97.0
e 27 44 60.0
e 27 80 34.0
e 27 81 92.0
e 27 231 10.0
e 27 195 13.0
e 27 10 10.0
e 27 257 79.0
e 27 203 51.0
e 27 125 84.0
e 27 304 62.0
e 27 190 61.0
e 27 301 42.0
e 27 204 33.0
e 27 268 78.0
e 28 43 33.0
e 28 314 1.0
e 28 185 79.0
e 29 272 9.0
e 29 271 16.0
e 31 258 74.0
e 31 137 6.0
e 31 174 2.0
e 32 285 3.0
e 32 36 1.0
e 34 308 56.0
e 34 290 83.0
e 34 264 3.0
e 34 296 30.0
e 34 106 26.0
e 34 195 6.0
e 34 132 14.0
e 34 110 15.0
e 34 153 48.0
e 34 279 25.0
e 34 231 10.0
e 34 260 29.0
e 34 220 73.0
e 34 22 57.0
e 34 181 46.0
e 34 2 76.0
e 34 262 27.0
e 35 299 6.0
e 37 71 84.0
e 37 155 49.0
e 37 240 29.0
e 37 243 62.0
e 37 73 98.0
e 37 215 84.0
e 37 102 68.0
e 37 213 2.0
e 37 53 48.0
e 37 6 26.0
e 37 134 36.0
e 37 187 15.0
e 37 35 16.0
e 37 276 7.0
e 37 113 34.0
e 37 120 36.0
e 37 254 24.0
e 38 134 12.0
e 38 275 6.0
e 38 272 31.0
e 38 231 46.0
e 38 126 94.0
e 38 188 80.0
e 38 216 65.0
e 38 139 50.0
e 38 293 24.0
e 38 236 12.0
e 38 136 76.0
e 38 153 93.0
e 38 128 42.0
e 38 78 48.0
e 38 116 85.0
e 38 193 47.0
e 39 18 6.0
e 39 193 5.0
e 40 13 23.0
e 40 242 10.0
e 40 106 17.0
e 40 219 10.0
e 41 249 92.0
e 42 168 19.0
e 43 248 7.0
e 43 16 17.0
e 43 143 40.0
e 43 268 61.0
e 43 2 18.0
e 43 313 58.0
e 43 29 16.0
e 43 55 33.0
e 43 144 76.0
e 43 56 92.0
e 43 86 23.0
e 43 127 99.0
e 43 208 28.0
e 43 104 6.0
e 43 277 13.0
e 43 223 61.0
e 45 42 40.0
e 45 200 85.0
e 45 67 16.0
e 45 8 93.0
e 45 11 3.0
e 45 136 28.0
e 45 88 52.0
e 45 65 80.0
e 45 52 40.0
e 45 142 76.0
e 45 114 50.0
e 45 36 38.0
e 45 263 36.0
e 45 177 1.0
e 45 139 58.0
e 45 313 53.0
e 45 94 47.0
e 46 193 3.0
e 47 105 14.0
e 47 277 51.0
e 47 280 72.0
e 47 273 53.0
e 47 231 80.0
e 47 35 39.0
e 47 267 21.0
e 47 103 87.0
e 47 222 16.0
e 47 146 21.0
e 47 104 42.0
e 47 122 6.0
e 47 214 19.0
e 47 64 70.0
e 47 9 84.0
e 47 171 95.0
e 47 289 67.0
e 48 173 61.0
e 49 69 93.0
e 50 147 2.0
e 51 204 3.0
e 52 259 44.0
e 52 34 100.0
e 52 293 30.0
e 52 43 65.0
e 52 119 46.0
e 52 185 76.0
e 52 227 45.0
e 52 117 68.0
e 52 265 75.0
e 52 14 50.0
e 52 176 47.0
e 52 223 4.0
e 52 280 38.0
e 52 98 10.0
e 52 285 49.0
e 52 24 95.0
e 53 278 29.0
e 53 17 48.0
e 53 147 65.0
e 53 99 79.0
e 53 119 25.0
e 53 54 20.0
e 53 116 53.0
e 53 183 4.0
e 53 229 95.0
e 53 67 8.0
e 53 286 36.0
e 53 133 95.0
e 53 220 79.0
e 53 25 39.0
e 53 194 87.0
e 55 191 99.0
e 55 143 93.0
e 55 267 69.0
e 55 51 31.0
e 55 150 81.0
e 55 197 51.0
e 55 171 14.0
e 55 204 23.0
e 55 52 29.0
e 55 288 24.0
e 55 224 77.0
e 55 95 13.0
e 55 231 35.0
e 55 301 75.0
e 55 83 84.0
e 55 67 94.0
e 57 283 75.0
e 57 218 70.0
e 57 263 65.0
e 57 60 14.0
e 57 285 100.0
e 57 305 22.0
e 57 34 98.0
e 57 56 76.0
e 57 157 94.0
e 57 83 80.0
e 57 131 93.0
e 57 54 57.0
e 57 120 14.0
e 57 275 92.0
e 57 307 34.0
e 57 90 35.0
e 58 0 1.0
e 59 205 9.0
e 59 148 4.0
e 60 128 2.0
e 61 51 64.0
e 61 25 49.0
e 61 75 40.0
e 61 113 94.0
e 61 218 12.0
e 61 59 96.0
e 61 143 34.0
e 61 88 35.0
e 61 200 47.0
e 61 248 66.0
e 61 264 64.0
e 61 35 99.0
e 61 94 51.0
e 61 235 15.0
e 61 202 75.0
e 61 208 37.0
e 61 246 54.0
e 62 233 1.0
e 62 87 6.0
e 63 225 4.0
e 63 316 3.0
e 64 139 2.0
e 66 151 52.0
e 66 305 99.0
e 66 84 35.0
e 66 182 1.0
e 66 235 40.0
e 66 2 48.0
e 66 67 63.0
e 66 198 88.0
e 66 282 76.0
e 66 276 45.0
e 66 212 59.0
e 66 205 19.0
e 66 177 26.0
e 66 192 31.0
e 66 61 11.0
e 66 285 29.0
e 66 56 56.0
e 68 130 64.0
e 68 14 94.0
e 68 95 30.0
e 68 302 90.0
e 68 1 16.0
e 68 19 95.0
e 68 32 97.0
e 68 74 80.0
e 68 287 46.0
e 68 69 38.0
e 68 66 9.0
e 68 289 38.0
e 68 23 75.0
e 68 15 7.0
e 68 70 64.0
e 68 71 1.0
e 68 0 56.0
e 69 275 63.0
e 69 147 22.0
e 69 253 84.0
e 69 191 26.0
e 69 177 77.0
e 69 143 63.0
e 69 198 15.0
e 69 263 98.0
e 69 34 93.0
e 69 163 35.0
e 69 316 77.0
e 69 50 94.0
e 69 73 54.0
e 69 71 47.0
e 69 133 70.0
e 70 291 76.0
e 70 195 17.0
e 70 201 27.0
e 70 141 19.0
e 70 134 33.0
e 70 121 22.0
e 70 157 54.0
e 70 207 62.0
e 70 287 49.0
e 70 170 33.0
e 70 281 12.0
e 70 236 16.0
e 70 84 10.0
e 70 78 34.0
e 70 90 56.0
e 71 190 15.0
e 71 274 9.0
e 71 245 21.0
e 71 104 54.0
e 71 178 97.0
e 71 98 20.0
e 71 315 42.0
e 71 246 89.0
e 71 254 19.0
e 71 297 34.0
e 71 184 53.0
e 71 79 4.0
e 71 63 17.0
e 71 115 54.0
e 72 82 9.0
e 75 80 56.0
e 75 49 21.0
e 75 251 58.0
e 75 92 24.0
e 75 252 88.0
e 75 167 98.0
e 75 83 77.0
e 75 57 29.0
e 75 277 72.0
e 75 181 34.0
e 75 166 65.0
e 75 122 93.0
e 75 289 18.0
e 75 290 86.0
e 75 305 83.0
e 75 66 44.0
e 76 145 24.0
e 76 188 97.0
e 76 235 37.0
e 76 298 42.0
e 76 3 12.0
e 76 125 90.0
e 76 148 75.0
e 76 28 64.0
e 76 271 32.0
e 76 7 85.0
e 76 20 15.0
e 76 165 71.0
e 76 194 71.0
e 76 18 8.0
e 76 66 57.0
e 76 311 66.0
e 76 261 6.0
e 77 225 16.0
e 77 102 19.0
e 77 167 9.0
e 77 38 95.0
e 77 60 66.0
e 77 40 61.0
e 77 202 17.0
e 77 195 28.0
e 77 166 71.0
e 77 162 78.0
e 77 101 30.0
e 77 249 60.0
e 77 193 8.0
e 77 226 47.0
e 77 124 11.0
e 77 1 5.0
e 78 55 34.0
e 78 16 16.0
e 78 94 61.0
e 78 125 11.0
e 78 221 25.0
e 78 142 66.0
e 78 294 19.0
e 78 75 46.0
e 78 233 24.0
e 78 156 72.0
e 78 314 53.0
e 78 128 21.0
e 78 139 81.0
e 78 100 67.0
e 78 129 71.0
e 80 190 2.0
e 81 43 72.0
e 81 304 22.0
e 81 153 22.0
e 82 26 22.0
e 85 256 7.0
e 85 185 72.0
e 85 262 10.0
e 86 161 22.0
e 87 259 71.0
e 87 140 98.0
e 87 185 94.0
e 87 211 26.0
e 87 6 69.0
e 87 240 99.0
e 87 148 60.0
e 87 224 42.0
e 87 14 50.0
e 87 150 26.0
e 87 225 72.0
e 87 285 36.0
e 87 227 46.0
e 87 58 51.0
e 87 309 93.0
e 87 100 59.0
e 88 136 3.0
e 88 251 34.0
e 88 16 89.0
e 88 74 39.0
e 88 117 9.0
e 89 224 3.0
e 91 18 6.0
e 91 241 72.0
e 91 235 22.0
e 91 165 71.0
e 91 47 6.0
e 91 38 15.0
e 91 296 37.0
e 91 255 25.0
e 91 111 86.0
e 91 3 25.0
e 91 180 38.0
e 91 201 51.0
e 91 185 96.0
e 91 36 66.0
e 91 92 69.0
e 91 123 91.0
e 91 144 15.0
e 93 257 27.0
e 94 89 13.0
e 94 111 5.0
e 94 318 34.0
e 94 226 31.0
e 94 163 10.0
e 94 301 35.0
e 95 54 51.0
e 95 284 50.0
e 95 223 9.0
e 95 152 79.0
e 95 31 77.0
e 95 69 70.0
e 95 301 71.0
e 95 183 19.0
e 95 29 94.0
e 95 59 35.0
e 95 33 98.0
e 95 36 35.0
e 95 263 26.0
e 95 276 14.0
e 95 91 69.0
e 96 268 8.0
e 99 109 88.0
e 99 75 97.0
e 99 49 28.0
e 99 226 6.0
e 99 256 14.0
e 99 20 73.0
e 99 140 30.0
e 104 107 86.0
e 104 19 15.0
e 104 236 52.0
e 104 72 36.0
e 104 105 34.0
e 104 11 79.0
e 104 80 44.0
e 104 120 86.0
e 104 210 56.0
e 104 237 10.0
e 104 101 94.0
e 104 172 62.0
e 107 242 46.0
e 107 68 87.0
e 107 152 56.0
e 107 229 44.0
e 107 253 27.0
e 107 213 48.0
e 107 96 3.0
e 107 160 69.0
e 107 222 72.0
e 107 258 63.0
e 107 261 83.0
e 107 203 12.0
e 107 91 89.0
e 107 41 25.0
e 107 115 18.0
e 107 49 65.0
e 108 167 44.0
e 108 239 88.0
e 108 305 56.0
e 108 101 34.0
e 108 37 98.0
e 108 29 66.0
e 108 126 17.0
e 108 292 100.0
e 108 80 13.0
e 108 269 30.0
e 108 105 58.0
e 108 116 81.0
e 108 181 11.0
e 108 244 23.0
e 108 190 73.0
e 108 3 57.0
e 109 286 99.0
e 109 44 40.0
e 109 156 64.0
e 109 113 48.0
e 109 242 16.0
e 109 176 25.0
e 109 239 10.0
e 109 82 37.0
e 109 121 78.0
e 109 48 61.0
e 109 197 80.0
e 109 59 23.0
e 109 152 91.0
e 109 202 23.0
e 109 91 67.0
e 109 306 7.0
e 111 305 5.0
e 112 253 75.0
e 112 122 52.0
e 112 160 42.0
e 112 76 63.0
e 112 250 78.0
e 112 248 1.0
e 112 37 83.0
e 112 116 94.0
e 112 24 3.0
e 112 62 26.0
e 112 192 82.0
e 112 4 79.0
e 112 74 79.0
e 112 38 85.0
e 112 288 31.0
e 112 129 60.0
e 115 229 64.0
e 115 134 98.0
e 115 170 38.0
e 115 210 50.0
e 115 79 31.0
e 115 9 22.0
e 115 233 40.0
e 115 123 17.0
e 115 84 82.0
e 115 48 86.0
e 115 278 91.0
e 115 176 14.0
e 115 235 63.0
e 115 124 37.0
e 115 73 70.0
e 116 252 44.0
e 116 288 46.0
e 116 165 19.0
e 116 297 24.0
e 116 76 8.0
e 116 264 74.0
e 116 201 26.0
e 116 37 5.0
e 116 30 79.0
e 116 188 40.0
e 116 314 76.0
e 116 120 84.0
e 116 281 28.0
e 117 167 8.0
e 118 182 1.0
e 118 170 8.0
e 122 89 57.0
e 122 51 99.0
e 122 71 62.0
e 122 247 82.0
e 122 15 3.0
e 122 138 64.0
e 122 204 94.0
e 122 95 36.0
e 122 209 64.0
e 122 192 87.0
e 122 305 89.0
e 122 250 38.0
e 123 106 2.0
e 125 243 96.0
e 125 5 25.0
e 125 17 82.0
e 125 162 52.0
e 125 102 98.0
e 125 163 13.0
e 125 244 4.0
e 125 235 45.0
e 125 214 17.0
e 125 227 100.0
e 125 289 63.0
e 125 20 23.0
e 125 100 100.0
e 125 7 45.0
e 126 231 18.0
e 126 7 19.0
e 126 201 9.0
e 126 8 27.0
e 126 219 55.0
e 126 297 33.0
e 126 151 81.0
e 126 86 76.0
e 126 153 36.0
e 126 64 16.0
e 126 68 70.0
e 126 175 68.0
e 126 202 80.0
e 126 184 26.0
e 129 267 92.0
e 129 240 76.0
e 129 183 34.0
e 129 196 68.0
e 129 278 14.0
e 129 291 59.0
e 129 84 24.0
e 129 246 47.0
e 129 262 50.0
e 129 79 67.0
e 129 210 76.0
e 129 110 31.0
e 129 165 65.0
e 129 125 33.0
e 129 161 81.0
e 130 263 21.0
e 130 198 79.0
e 130 172 78.0
e 130 235 25.0
e 130 234 35.0
e 130 70 70.0
e 130 4 80.0
e 130 133 11.0
e 130 164 45.0
e 130 142 50.0
e 130 78 63.0
e 130 79 49.0
e 130 39 28.0
e 130 109 100.0
e 130 154 94.0
e 131 195 98.0
e 131 95 95.0
e 131 270 95.0
e 131 298 50.0
e 131 299 23.0
e 131 45 27.0
e 131 179 73.0
e 131 30 14.0
e 131 46 15.0
e 131 263 84.0
e 131 181 40.0
e 131 141 45.0
e 131 313 65.0
e 131 22 87.0
e 131 80 35.0
e 131 196 14.0
e 145 39 70.0
e 145 8 99.0
e 145 290 49.0
e 145 192 14.0
e 145 9 72.0
e 145 109 6.0
e 145 130 17.0
e 145 241 82.0
e 145 27 12.0
e 145 117 40.0
e 145 232 65.0
e 145 312 45.0
e 145 19 53.0
e 145 188 73.0
e 145 307 59.0
e 145 60 96.0
e 149 286 1.0
e 155 39 52.0
e 155 152 25.0
e 155 68 1.0
e 155 127 72.0
e 155 273 63.0
e 155 60 51.0
e 155 211 33.0
e 155 289 46.0
e 155 194 21.0
e 155 177 91.0
e 155 126 31.0
e 155 128 18.0
e 155 129 65.0
e 155 130 49.0
e 155 22 52.0
e 155 202 10.0
e 159 114 3.0
e 160 135 6.0
e 161 120 7.0
e 161 308 100.0
e 161 194 16.0
e 161 224 4.0
e 161 198 19.0
e 161 261 6.0
e 161 145 78.0
e 161 50 63.0
e 161 63 86.0
e 161 131 32.0
e 161 215 98.0
e 161 92 56.0
e 161 268 57.0
e 161 132 46.0
e 163 278 19.0
e 164 113 13.0
e 164 178 9.0
e 164 76 86.0
e 164 62 3.0
e 165 141 46.0
e 165 40 94.0
e 165 83 1.0
e 165 147 94.0
e 165 291 57.0
e 165 239 47.0
e 165 21 25.0
e 165 103 61.0
e 165 17 96.0
e 165 57 49.0
e 165 81 58.0
e 165 197 91.0
e 165 299 7.0
e 167 227 47.0
e 167 122 40.0
e 167 21 22.0
e 167 298 100.0
e 167 265 62.0
e 167 187 35.0
e 167 286 56.0
e 167 271 5.0
e 167 164 99.0
e 167 118 63.0
e 167 46 64.0
e 167 254 59.0
e 167 58 74.0
e 168 189 19.0
e 168 211 9.0
e 168 15 15.0
e 168 70 25.0
e 169 313 5.0
e 169 229 100.0
e 170 295 24.0
e 170 273 3.0
e 171 259 93.0
e 171 268 21.0
e 171 295 87.0
e 171 214 75.0
e 171 162 28.0
e 171 97 36.0
e 171 244 40.0
e 171 81 22.0
e 171 227 22.0
e 171 269 63.0
e 171 304 21.0
e 171 4 19.0
e 171 228 75.0
e 171 199 90.0
e 173 163 58.0
e 173 250 82.0
e 173 114 92.0
e 173 178 31.0
e 173 69 85.0
e 173 127 68.0
e 173 257 6.0
e 173 103 33.0
e 173 21 100.0
e 173 11 54.0
e 173 244 83.0
e 173 315 37.0
e 173 23 55.0
e 173 62 76.0
e 173 128 96.0
e 173 318 19.0
e 179 31 8.0
e 179 77 42.0
e 179 27 67.0
e 179 104 2.0
e 180 52 25.0
e 180 182 58.0
e 180 61 71.0
e 180 280 13.0
e 180 28 48.0
e 180 125 60.0
e 180 23 52.0
e 180 74 60.0
e 180 170 81.0
e 180 5 96.0
e 180 291 48.0
e 180 13 90.0
e 180 172 56.0
e 180 24 36.0
e 180 279 42.0
e 180 220 2.0
e 183 25 62.0
e 183 5 55.0
e 183 186 37.0
e 183 227 36.0
e 183 231 68.0
e 183 73 75.0
e 183 10 44.0
e 183 160 100.0
e 183 194 79.0
e 183 307 30.0
e 183 30 67.0
e 183 93 11.0
e 184 251 24.0
e 184 155 41.0
e 184 258 12.0
e 184 302 92.0
e 184 202 35.0
e 184 93 49.0
e 184 123 92.0
e 184 289 11.0
e 184 262 52.0
e 184 121 45.0
e 184 214 39.0
e 184 270 38.0
e 184 75 60.0
e 184 104 80.0
e 184 63 83.0
e 185 26 70.0
e 185 71 15.0
e 185 178 56.0
e 185 45 40.0
e 185 107 9.0
e 185 53 41.0
e 185 315 46.0
e 185 6 54.0
e 185 61 76.0
e 185 163 45.0
e 185 200 53.0
e 185 282 38.0
e 188 269 55.0
e 188 255 68.0
e 188 10 8.0
e 188 171 12.0
e 188 240 63.0
e 188 287 15.0
e 188 131 98.0
e 188 155 32.0
e 188 154 13.0
e 188 156 53.0
e 188 69 13.0
e 188 99 67.0
e 189 26 20.0
e 195 263 46.0
e 195 44 50.0
e 195 135 76.0
e 195 126 13.0
e 195 12 9.0
e 195 149 1.0
e 195 157 14.0
e 195 230 93.0
e 195 199 24.0
e 195 43 96.0
e 195 86 56.0
e 195 238 79.0
e 203 293 69.0
e 203 265 86.0
e 203 163 43.0
e 203 117 4.0
e 203 296 32.0
e 203 270 34.0
e 203 249 54.0
e 203 135 84.0
e 203 247 18.0
e 203 245 93.0
e 203 31 93.0
e 203 33 6.0
e 203 213 14.0
e 203 40 48.0
e 205 64 10.0
e 206 137 1.0
e 209 78 93.0
e 209 249 55.0
e 209 27 55.0
e 209 12 20.0
e 209 174 61.0
e 209 309 52.0
e 209 161 83.0
e 209 251 94.0
e 209 181 50.0
e 209 109 5.0
e 209 257 88.0
e 209 81 69.0
e 209 70 18.0
e 209 203 21.0
e 209 28 7.0
e 212 279 3.0
e 213 159 18.0
e 213 183 50.0
e 216 265 27.0
e 216 186 4.0
e 216 41 44.0
e 216 241 96.0
e 216 107 41.0
e 216 95 11.0
e 216 259 49.0
e 216 160 32.0
e 216 32 88.0
e 216 164 79.0
e 216 33 49.0
e 216 122 66.0
e 216 220 36.0
e 216 179 18.0
e 216 148 22.0
e 216 104 17.0
e 217 121 3.0
e 217 261 94.0
e 221 261 8.0
e 221 12 2.0
e 227 130 37.0
e 227 50 91.0
e 227 247 62.0
e 227 164 33.0
e 227 279 21.0
e 227 82 82.0
e 227 291 42.0
e 227 209 73.0
e 227 161 27.0
e 227 85 71.0
e 227 32 2.0
e 228 194 8.0
e 229 284 56.0
e 229 105 64.0
e 229 118 15.0
e 229 225 20.0
e 229 137 4.0
e 229 41 62.0
e 229 186 24.0
e 229 114 48.0
e 229 302 58.0
e 229 82 37.0
e 229 42 97.0
e 229 171 97.0
e 229 122 44.0
e 231 281 89.0
e 231 42 68.0
e 231 71 51.0
e 231 85 22.0
e 231 107 47.0
e 231 44 53.0
e 231 45 70.0
e 231 46 87.0
e 231 195 30.0
e 232 112 12.0
e 235 203 7.0
e 235 237 39.0
e 235 154 87.0
e 235 258 91.0
e 235 78 84.0
e 235 110 82.0
e 235 123 63.0
e 235 47 27.0
e 235 187 19.0
e 235 173 34.0
e 237 289 68.0
e 237 132 32.0
e 237 47 24.0
e 237 154 13.0
e 237 171 71.0
e 237 48 69.0
e 237 52 51.0
e 237 300 51.0
e 237 178 22.0
e 237 267 81.0
e 237 155 13.0
e 237 215 99.0
e 237 242 43.0
e 237 295 26.0
e 237 221 35.0
e 238 53 86.0
e 240 53 3.0
e 240 172 13.0
e 240 247 3.0
e 240 108 97.0
e 240 248 81.0
e 240 221 62.0
e 240 54 91.0
e 240 227 98.0
e 240 254 85.0
e 240 125 25.0
e 240 64 69.0
e 240 302 1.0
e 240 298 97.0
e 249 55 2.0
e 249 138 85.0
e 249 160 88.0
e 249 232 11.0
e 249 132 40.0
e 249 275 48.0
e 249 57 2.0
e 249 58 65.0
e 249 218 12.0
e 249 108 38.0
e 249 248 80.0
e 249 100 84.0
e 249 221 89.0
e 257 179 66.0
e 257 55 31.0
e 257 180 80.0
e 257 65 8.0
e 257 72 20.0
e 257 77 43.0
e 257 85 56.0
e 257 86 70.0
e 257 318 90.0
e 257 87 84.0
e 257 136 65.0
e 257 88 84.0
e 258 303 22.0
e 258 149 92.0
e 258 65 91.0
e 258 77 52.0
e 258 298 21.0
e 258 289 95.0
e 258 87 62.0
e 258 72 2.0
e 258 137 53.0
e 258 88 77.0
e 258 118 54.0
e 260 65 2.0
e 261 87 88.0
e 261 88 38.0
e 261 199 16.0
e 261 227 32.0
e 261 123 27.0
e 261 249 78.0
e 261 196 92.0
e 261 89 51.0
e 261 258 61.0
e 263 267 11.0
e 263 229 36.0
e 263 144 99.0
e 263 289 27.0
e 263 93 30.0
e 263 315 40.0
e 263 265 44.0
e 263 227 90.0
e 263 200 95.0
e 263 180 52.0
e 266 249 58.0
e 266 173 34.0
e 266 175 51.0
e 266 269 52.0
e 266 124 60.0
e 266 242 22.0
e 266 270 74.0
e 266 156 52.0
e 266 129 65.0
e 266 94 78.0
e 266 96 80.0
e 266 271 63.0
e 266 108 45.0
e 266 203 1.0
e 266 97 10.0
e 266 98 41.0
e 266 195 19.0
e 269 165 87.0
e 269 94 65.0
e 269 112 29.0
e 269 96 36.0
e 269 141 92.0
e 269 144 33.0
e 269 97 44.0
e 269 270 87.0
e 269 242 37.0
e 269 129 2.0
e 269 157 87.0
e 269 98 55.0
e 269 99 89.0
e 271 94 39.0
e 271 306 78.0
e 271 279 39.0
e 271 228 18.0
e 271 98 60.0
e 271 112 83.0
e 271 300 74.0
e 271 189 41.0
e 271 131 4.0
e 271 240 73.0
e 271 315 70.0
e 271 303 53.0
e 271 245 40.0
e 275 99 30.0
e 275 110 81.0
e 275 311 24.0
e 275 239 93.0
e 275 111 90.0
e 275 115 71.0
e 275 291 27.0
e 275 246 61.0
e 275 260 73.0
e 275 133 5.0
e 275 116 67.0
e 275 175 86.0
e 275 217 19.0
e 281 210 17.0
e 282 111 100.0
e 282 115 98.0
e 282 239 38.0
e 282 189 42.0
e 282 116 17.0
e 282 253 34.0
e 282 117 65.0
e 282 124 75.0
e 282 165 49.0
e 282 205 62.0
e 282 126 84.0
e 282 136 74.0
e 282 138 56.0
e 282 149 42.0
e 282 260 91.0
e 283 111 11.0
e 283 300 19.0
e 289 115 46.0
e 289 291 47.0
e 289 308 8.0
e 289 183 92.0
e 289 283 79.0
e 289 298 30.0
e 289 116 99.0
e 289 229 22.0
e 291 138 8.0
e 291 142 9.0
e 291 145 41.0
e 291 146 40.0
e 291 157 31.0
e 291 166 90.0
e 291 158 72.0
e 291 283 86.0
e 291 252 91.0
e 291 270 73.0
e 292 228 7.0
e 292 145 24.0
e 294 146 70.0
e 294 158 74.0
e 294 195 25.0
e 294 269 50.0
e 294 266 73.0
e 294 159 20.0
e 294 228 9.0
e 294 243 95.0
e 294 271 55.0
e 294 299 89.0
e 294 283 1.0
e 294 161 23.0
e 294 290 75.0
e 294 165 54.0
e 294 166 22.0
e 294 181 93.0
e 300 173 67.0
e 300 229 34.0
e 300 230 92.0
e 300 146 63.0
e 300 249 84.0
e 300 232 88.0
e 300 158 16.0
e 300 254 77.0
e 300 311 50.0
e 300 159 5.0
e 300 312 44.0
e 300 316 17.0
e 300 166 20.0
e 303 167 26.0
e 303 230 7.0
e 303 212 16.0
e 305 167 64.0
e 305 168 37.0
e 305 169 30.0
e 305 211 28.0
e 305 230 29.0
e 305 170 64.0
e 305 205 45.0
e 305 231 65.0
e 305 174 23.0
e 305 235 42.0
e 305 175 77.0
e 310 298 30.0
e 310 167 83.0
e 310 289 87.0
e 310 280 76.0
e 310 168 75.0
e 310 231 57.0
e 310 311 7.0
e 310 169 56.0
e 310 170 75.0
e 310 291 23.0
e 310 179 63.0
e 310 180 93.0
e 310 183 61.0
e 310 184 10.0
e 310 185 79.0
e 310 186 36.0
e 310 205 4.0
e 317 196 4.0
e 317 188 89.0
e 319 168 19.0
e 319 169 2.0
